
Gurobi 11.0.2 (win64) logging started Mon Aug 19 10:19:02 2024

Set parameter LogFile to value "D:\Documenti\Scuola\Laurea magistrale unibs\laurea-unibs-mkfsp\output\2024-08-19T06_36_50.601237\logs\instance11_bucket3.log"
Set parameter TimeLimit to value 350
Set parameter MIPGap to value 0
Gurobi Optimizer version 11.0.2 build v11.0.2rc0 (win64 - Windows 10.0 (19045.2))

CPU model: Intel(R) Core(TM) i5-4670 CPU @ 3.40GHz, instruction set [SSE2|AVX|AVX2]
Thread count: 4 physical cores, 4 logical processors, using up to 4 threads

Optimize a model with 3644 rows, 15584 columns and 434367 nonzeros
Model fingerprint: 0xc23a724f
Variable types: 0 continuous, 15584 integer (15402 binary)
Coefficient statistics:
  Matrix range     [1e+00, 8e+03]
  Objective range  [6e+02, 8e+03]
  Bounds range     [1e+00, 1e+00]
  RHS range        [1e+00, 8e+05]
Found heuristic solution: objective 819807.00000
Presolve time: 0.86s
Presolved: 3644 rows, 15584 columns, 434367 nonzeros
Variable types: 0 continuous, 15584 integer (15402 binary)
Found heuristic solution: objective 883716.00000
Deterministic concurrent LP optimizer: primal and dual simplex
Showing primal log only...

Concurrent spin time: 0.00s

Solved with dual simplex

Root relaxation: objective 1.060205e+06, 1438 iterations, 0.24 seconds (0.25 work units)

    Nodes    |    Current Node    |     Objective Bounds      |     Work
 Expl Unexpl |  Obj  Depth IntInf | Incumbent    BestBd   Gap | It/Node Time

H    0     0                    1060205.0000 1060205.00  0.00%     -    1s
     0     0 1060205.00    0  955 1060205.00 1060205.00  0.00%     -    1s

Explored 1 nodes (1438 simplex iterations) in 1.17 seconds (1.07 work units)
Thread count was 4 (of 4 available processors)

Solution count 3: 1.06021e+06 883716 819807 

Optimal solution found (tolerance 0.00e+00)
Best objective 1.060205000000e+06, best bound 1.060205000000e+06, gap 0.0000%
